unsat
(define-fun inv-f ((i Int) (j Int) (i_0 Int) (i_1 Int) (i_2 Int) (i_3 Int) (j_0 Int) (j_1 Int) (j_2 Int) (j_3 Int)) Bool (and (or (not (= i i_2)) (not (= j j_2)) (not (>= (+ i_2 (* (- 1) j_2)) 1)) (= j_2 6)) (= i (+ 21 (* (- 2) j)))))
302.85user 0.17system 5:03.04elapsed 99%CPU (0avgtext+0avgdata 178748maxresident)k
8inputs+8outputs (0major+41214minor)pagefaults 0swaps
